NAME: debruijn_embed_k7_m2_n128
TYPE: TSP
DIMENSION: 128
EDGE_WEIGHT_TYPE: EUC_2D
NODE_COORD_SECTION
1 100.000000 0.000000
2 99.879546 4.906767
3 99.518473 9.801714
4 98.917651 14.673047
5 98.078528 19.509032
6 97.003125 24.298018
7 95.694034 29.028468
8 94.154407 33.688985
9 92.387953 38.268343
10 90.398929 42.755509
11 88.192126 47.139674
12 85.772861 51.410274
13 83.146961 55.557023
14 80.320753 59.569930
15 77.301045 63.439328
16 74.095113 67.155895
17 70.710678 70.710678
18 67.155895 74.095113
19 63.439328 77.301045
20 59.569930 80.320753
21 55.557023 83.146961
22 51.410274 85.772861
23 47.139674 88.192126
24 42.755509 90.398929
25 38.268343 92.387953
26 33.688985 94.154407
27 29.028468 95.694034
28 24.298018 97.003125
29 19.509032 98.078528
30 14.673047 98.917651
31 9.801714 99.518473
32 4.906767 99.879546
33 0.000000 100.000000
34 -4.906767 99.879546
35 -9.801714 99.518473
36 -14.673047 98.917651
37 -19.509032 98.078528
38 -24.298018 97.003125
39 -29.028468 95.694034
40 -33.688985 94.154407
41 -38.268343 92.387953
42 -42.755509 90.398929
43 -47.139674 88.192126
44 -51.410274 85.772861
45 -55.557023 83.146961
46 -59.569930 80.320753
47 -63.439328 77.301045
48 -67.155895 74.095113
49 -70.710678 70.710678
50 -74.095113 67.155895
51 -77.301045 63.439328
52 -80.320753 59.569930
53 -83.146961 55.557023
54 -85.772861 51.410274
55 -88.192126 47.139674
56 -90.398929 42.755509
57 -92.387953 38.268343
58 -94.154407 33.688985
59 -95.694034 29.028468
60 -97.003125 24.298018
61 -98.078528 19.509032
62 -98.917651 14.673047
63 -99.518473 9.801714
64 -99.879546 4.906767
65 -100.000000 0.000000
66 -99.879546 -4.906767
67 -99.518473 -9.801714
68 -98.917651 -14.673047
69 -98.078528 -19.509032
70 -97.003125 -24.298018
71 -95.694034 -29.028468
72 -94.154407 -33.688985
73 -92.387953 -38.268343
74 -90.398929 -42.755509
75 -88.192126 -47.139674
76 -85.772861 -51.410274
77 -83.146961 -55.557023
78 -80.320753 -59.569930
79 -77.301045 -63.439328
80 -74.095113 -67.155895
81 -70.710678 -70.710678
82 -67.155895 -74.095113
83 -63.439328 -77.301045
84 -59.569930 -80.320753
85 -55.557023 -83.146961
86 -51.410274 -85.772861
87 -47.139674 -88.192126
88 -42.755509 -90.398929
89 -38.268343 -92.387953
90 -33.688985 -94.154407
91 -29.028468 -95.694034
92 -24.298018 -97.003125
93 -19.509032 -98.078528
94 -14.673047 -98.917651
95 -9.801714 -99.518473
96 -4.906767 -99.879546
97 -0.000000 -100.000000
98 4.906767 -99.879546
99 9.801714 -99.518473
100 14.673047 -98.917651
101 19.509032 -98.078528
102 24.298018 -97.003125
103 29.028468 -95.694034
104 33.688985 -94.154407
105 38.268343 -92.387953
106 42.755509 -90.398929
107 47.139674 -88.192126
108 51.410274 -85.772861
109 55.557023 -83.146961
110 59.569930 -80.320753
111 63.439328 -77.301045
112 67.155895 -74.095113
113 70.710678 -70.710678
114 74.095113 -67.155895
115 77.301045 -63.439328
116 80.320753 -59.569930
117 83.146961 -55.557023
118 85.772861 -51.410274
119 88.192126 -47.139674
120 90.398929 -42.755509
121 92.387953 -38.268343
122 94.154407 -33.688985
123 95.694034 -29.028468
124 97.003125 -24.298018
125 98.078528 -19.509032
126 98.917651 -14.673047
127 99.518473 -9.801714
128 99.879546 -4.906767
EOF
